(declare-fun temp76353_1 () (_ BitVec 64))
(declare-fun temp76353_2 () (_ BitVec 64))
(declare-fun var77740 () (_ BitVec 64))
(declare-fun k!0 () Bool)
(declare-fun ARGNAME_filter_NAMEEND_DIM () (_ BitVec 64))
(declare-fun ARGNAME_data_format_NAMEEND_STRFMT () (_ BitVec 64))
(declare-fun temp76353_3 () (_ BitVec 64))
(declare-fun ARGNAME_out_backprop_NAMEEND_DIM () (_ BitVec 64))
(declare-fun var77770 () (_ BitVec 64))
(declare-fun temp76353_4 () (_ BitVec 64))
(declare-fun temp76353_5 () (_ BitVec 64))
(declare-fun ARGNAME_filter_NAMEEND_DIMSIZE
             ()
             (Array (_ BitVec 64) (_ BitVec 64)))
(declare-fun temp76353_6 () (_ BitVec 64))
(declare-fun temp76353_7 () (_ BitVec 64))
(declare-fun temp76353_8 () (_ BitVec 64))
(declare-fun temp76353_9 () (_ BitVec 64))
(declare-fun temp76353_10 () (_ BitVec 64))
(declare-fun temp76353_11 () (_ BitVec 64))
(declare-fun temp76353_12 () (_ BitVec 64))
(declare-fun temp76353_13 () (_ BitVec 64))
(declare-fun temp76353_14 () (_ BitVec 64))
(declare-fun temp76353_15 () (_ BitVec 64))
(declare-fun temp76353_16 () (_ BitVec 64))
(declare-fun temp76353_17 () (_ BitVec 64))
(declare-fun temp76353_18 () (_ BitVec 64))
(declare-fun var77799 () (_ BitVec 64))
(declare-fun temp76353_19 () (_ BitVec 64))
(declare-fun ARGNAME_out_backprop_NAMEEND_DIMSIZE
             ()
             (Array (_ BitVec 64) (_ BitVec 64)))
(declare-fun temp76353_20 () (_ BitVec 64))
(declare-fun temp76353_21 () (_ BitVec 64))
(declare-fun temp76353_22 () (_ BitVec 64))
(declare-fun temp76353_23 () (_ BitVec 64))
(declare-fun temp76353_24 () (_ BitVec 64))
(declare-fun temp76353_25 () (_ BitVec 64))
(declare-fun temp76353_26 () (_ BitVec 64))
(declare-fun temp76353_27 () (_ BitVec 64))
(declare-fun temp76353_28 () (_ BitVec 64))
(declare-fun temp76353_29 () (_ BitVec 64))
(declare-fun temp76353_30 () (_ BitVec 64))
(declare-fun temp76353_31 () (_ BitVec 64))
(declare-fun temp76353_32 () (_ BitVec 64))
(declare-fun var77832 () (_ BitVec 64))
(declare-fun temp76353_33 () (_ BitVec 64))
(declare-fun temp76353_34 () (_ BitVec 64))
(declare-fun var77833 () (_ BitVec 64))
(declare-fun var77834 () (_ BitVec 64))
(declare-fun temp76353_35 () (_ BitVec 64))
(declare-fun temp76353_36 () (_ BitVec 64))
(declare-fun var275510 () (_ BitVec 64))
(declare-fun temp76353_37 () (_ BitVec 64))
(declare-fun var275528 () (_ BitVec 64))
(declare-fun temp76353_38 () (_ BitVec 64))
(declare-fun temp76353_39 () (_ BitVec 64))
(declare-fun var406582 () (_ BitVec 64))
(declare-fun temp76353_40 () (_ BitVec 64))
(declare-fun var406600 () (_ BitVec 64))
(declare-fun temp76353_41 () (_ BitVec 64))
(declare-fun temp76353_43 () (_ BitVec 64))
(declare-fun temp76353_42 () (_ BitVec 64))
(declare-fun temp76353_44 () (_ BitVec 64))
(declare-fun var603190 () (_ BitVec 64))
(declare-fun temp76353_45 () (_ BitVec 64))
(declare-fun var603208 () (_ BitVec 64))
(declare-fun temp76353_46 () (_ BitVec 64))
(declare-fun temp76353_48 () (_ BitVec 64))
(declare-fun temp76353_47 () (_ BitVec 64))
(declare-fun temp76353_50 () (_ BitVec 64))
(declare-fun temp76353_49 () (_ BitVec 64))
(declare-fun temp76353_52 () (_ BitVec 64))
(declare-fun temp76353_51 () (_ BitVec 64))
(declare-fun temp76353_54 () (_ BitVec 64))
(declare-fun temp76353_53 () (_ BitVec 64))
(declare-fun temp76353_55 () (_ BitVec 64))
(declare-fun var861259 () (_ BitVec 64))
(declare-fun var861238 () (_ BitVec 64))
(declare-fun var795670 () (_ BitVec 64))
(declare-fun temp76353_56 () (_ BitVec 64))
(declare-fun temp76353_58 () (_ BitVec 64))
(declare-fun temp76353_57 () (_ BitVec 64))
(declare-fun temp76353_60 () (_ BitVec 64))
(declare-fun temp76353_59 () (_ BitVec 64))
(declare-fun temp76353_62 () (_ BitVec 64))
(declare-fun temp76353_61 () (_ BitVec 64))
(declare-fun temp76353_63 () (_ BitVec 64))
(declare-fun var1057842 () (_ BitVec 64))
(declare-fun temp76353_64 () (_ BitVec 64))
(declare-fun var1057843 () (_ BitVec 64))
(declare-fun var1057844 () (_ BitVec 64))
(declare-fun var1057840 () (_ BitVec 64))
(declare-fun var730076 () (_ BitVec 64))
(declare-fun temp76353_65 () (_ BitVec 64))
(declare-fun var1123378 () (_ BitVec 64))
(declare-fun temp76353_66 () (_ BitVec 64))
(declare-fun var1123379 () (_ BitVec 64))
(declare-fun var1123380 () (_ BitVec 64))
(declare-fun var1123376 () (_ BitVec 64))
(declare-fun var730083 () (_ BitVec 64))
(declare-fun temp76353_67 () (_ BitVec 64))
(declare-fun var1188914 () (_ BitVec 64))
(declare-fun temp76353_68 () (_ BitVec 64))
(declare-fun var1188915 () (_ BitVec 64))
(declare-fun var1188916 () (_ BitVec 64))
(declare-fun var1188912 () (_ BitVec 64))
(declare-fun var730088 () (_ BitVec 64))
(declare-fun var78095 () (_ BitVec 64))
(declare-fun temp76353_69 () (_ BitVec 64))
(declare-fun temp76353_70 () (_ BitVec 64))
(declare-fun var78184 () (_ BitVec 64))
(declare-fun temp76353_72 () (_ BitVec 64))
(declare-fun temp76353_71 () (_ BitVec 64))
(declare-fun temp76353_74 () (_ BitVec 64))
(declare-fun temp76353_73 () (_ BitVec 64))
(assert (or (= ARGNAME_data_format_NAMEEND_STRFMT #x0000000000000000)
    (= ARGNAME_data_format_NAMEEND_STRFMT #x0000000000000001)
    (= ARGNAME_data_format_NAMEEND_STRFMT #x0000000000000002)
    (= ARGNAME_data_format_NAMEEND_STRFMT #x0000000000000003)
    (= ARGNAME_data_format_NAMEEND_STRFMT #x0000000000000004)
    (= ARGNAME_data_format_NAMEEND_STRFMT #x0000000000000005)))
(assert (= temp76353_1 #x0000000000000005))
(assert (= var77740
   (ite (= ARGNAME_filter_NAMEEND_DIM temp76353_1)
        #x0000000000000001
        #x0000000000000000)))
(assert (= temp76353_2 #x0000000000000001))
(assert (= var77740 temp76353_2))
(assert (= temp76353_3 #x0000000000000005))
(assert (= var77770
   (ite (= ARGNAME_out_backprop_NAMEEND_DIM temp76353_3)
        #x0000000000000001
        #x0000000000000000)))
(assert (= temp76353_4 #x0000000000000001))
(assert (= var77770 temp76353_4))
(assert (= temp76353_5 #x0000000000000000))
(assert (= temp76353_6 (select ARGNAME_filter_NAMEEND_DIMSIZE temp76353_5)))
(assert (= temp76353_7 #x0000000000000001))
(assert (= temp76353_8 (select ARGNAME_filter_NAMEEND_DIMSIZE temp76353_7)))
(assert (= temp76353_9 #x0000000000000002))
(assert (= temp76353_10 (select ARGNAME_filter_NAMEEND_DIMSIZE temp76353_9)))
(assert (= temp76353_11 #x0000000000000003))
(assert (= temp76353_12 (select ARGNAME_filter_NAMEEND_DIMSIZE temp76353_11)))
(assert (= temp76353_13 #x0000000000000004))
(assert (= temp76353_14 (select ARGNAME_filter_NAMEEND_DIMSIZE temp76353_13)))
(assert (= temp76353_15 #x0000000000000005))
(assert (= temp76353_16 (select ARGNAME_filter_NAMEEND_DIMSIZE temp76353_15)))
(assert (= temp76353_17 #x0000000000000003))
(assert (= temp76353_18 (select ARGNAME_filter_NAMEEND_DIMSIZE temp76353_17)))
(assert (= var77799 temp76353_18))
(assert (= temp76353_19 #x0000000000000000))
(assert (= temp76353_20 (select ARGNAME_out_backprop_NAMEEND_DIMSIZE temp76353_19)))
(assert (= temp76353_21 #x0000000000000001))
(assert (= temp76353_22 (select ARGNAME_out_backprop_NAMEEND_DIMSIZE temp76353_21)))
(assert (= temp76353_23 #x0000000000000002))
(assert (= temp76353_24 (select ARGNAME_out_backprop_NAMEEND_DIMSIZE temp76353_23)))
(assert (= temp76353_25 #x0000000000000003))
(assert (= temp76353_26 (select ARGNAME_out_backprop_NAMEEND_DIMSIZE temp76353_25)))
(assert (= temp76353_27 #x0000000000000004))
(assert (= temp76353_28 (select ARGNAME_out_backprop_NAMEEND_DIMSIZE temp76353_27)))
(assert (= temp76353_29 #x0000000000000005))
(assert (= temp76353_30 (select ARGNAME_out_backprop_NAMEEND_DIMSIZE temp76353_29)))
(assert (= temp76353_31 #x0000000000000004))
(assert (= temp76353_32 (select ARGNAME_out_backprop_NAMEEND_DIMSIZE temp76353_31)))
(assert (= var77832 temp76353_32))
(assert (= temp76353_33 #x0000000000000004))
(assert (= temp76353_34 (select ARGNAME_filter_NAMEEND_DIMSIZE temp76353_33)))
(assert (= var77833 temp76353_34))
(assert (= var77834 (ite (= var77832 var77833) #x0000000000000001 #x0000000000000000)))
(assert (= temp76353_35 #x0000000000000001))
(assert (= var77834 temp76353_35))
(assert (= temp76353_36 #x0000000000000001))
(assert (= var275510 temp76353_36))
(assert (= temp76353_37 #x0000000000000001))
(assert (= var275528
   (ite (bvslt var275510 temp76353_37) #x0000000000000001 #x0000000000000000)))
(assert (= temp76353_38 #x0000000000000000))
(assert (= var275528 temp76353_38))
(assert (= temp76353_39 #x0000000000000001))
(assert (= var406582 temp76353_39))
(assert (= temp76353_40 #x0000000000000001))
(assert (= var406600
   (ite (bvslt var406582 temp76353_40) #x0000000000000001 #x0000000000000000)))
(assert (= temp76353_41 #x0000000000000000))
(assert (= var406600 temp76353_41))
(assert (= temp76353_43 #x0000000000000000))
(assert (= temp76353_42 temp76353_43))
(assert (= temp76353_44 #x0000000000000001))
(assert (= var603190 temp76353_44))
(assert (= temp76353_45 #x0000000000000001))
(assert (= var603208
   (ite (bvslt var603190 temp76353_45) #x0000000000000001 #x0000000000000000)))
(assert (= temp76353_46 #x0000000000000000))
(assert (= var603208 temp76353_46))
(assert (= temp76353_48 #x0000000000000000))
(assert (= temp76353_47 temp76353_48))
(assert (= temp76353_50 #x00000000000000ff))
(assert (= temp76353_49 temp76353_50))
(assert (= temp76353_52 #x00000000000000ff))
(assert (= temp76353_51 temp76353_52))
(assert (= temp76353_54 #x00000000000000ff))
(assert (= temp76353_53 temp76353_54))
(assert (= temp76353_55 #x0000000000000000))
(assert (= var861259 temp76353_55))
(assert (= var861238 var861259))
(assert (= var795670 var861238))
(assert (= temp76353_56 #x0000000000000000))
(assert (= var795670 temp76353_56))
(assert (= temp76353_58 #x0000000000000000))
(assert (= temp76353_57 temp76353_58))
(assert (= temp76353_60 #x0000000000000000))
(assert (= temp76353_59 temp76353_60))
(assert (= temp76353_62 #x0000000000000000))
(assert (= temp76353_61 temp76353_62))
(assert (= temp76353_63 #x0000000000008000))
(assert (= var1057842 temp76353_63))
(assert (= temp76353_64 #x0000000000000001))
(assert (= var1057843
   (ite (bvslt temp76353_61 temp76353_64) #x0000000000000001 #x0000000000000000)))
(assert (= var1057844 (ite (= var1057843 #x0000000000000001) var1057842 temp76353_61)))
(assert (= var1057840 var1057844))
(assert (= var730076 var1057840))
(assert (= temp76353_65 #x0000000000040000))
(assert (= var1123378 temp76353_65))
(assert (= temp76353_66 #x0000000000000001))
(assert (= var1123379
   (ite (bvslt temp76353_59 temp76353_66) #x0000000000000001 #x0000000000000000)))
(assert (= var1123380 (ite (= var1123379 #x0000000000000001) var1123378 temp76353_59)))
(assert (= var1123376 var1123380))
(assert (= var730083 var1123376))
(assert (= temp76353_67 #x0000000000200000))
(assert (= var1188914 temp76353_67))
(assert (= temp76353_68 #x0000000000000001))
(assert (= var1188915
   (ite (bvslt temp76353_57 temp76353_68) #x0000000000000001 #x0000000000000000)))
(assert (= var1188916 (ite (= var1188915 #x0000000000000001) var1188914 temp76353_57)))
(assert (= var1188912 var1188916))
(assert (= var730088 var1188912))
(assert (= var78095 var730088))
(assert (= temp76353_69 #x0000000000000003))
(assert (= temp76353_70 #x0000000000000001))
(assert (= var78184 temp76353_70))
(assert (= temp76353_72 #x0000000000000001))
(assert (= temp76353_71 temp76353_72))
(assert (= temp76353_74 #x0000000000000001))
(assert (= temp76353_73 temp76353_74))
(model-add temp76353_1 () (_ BitVec 64) #x0000000000000005)
(model-add temp76353_2 () (_ BitVec 64) #x0000000000000001)
(model-add var77740 () (_ BitVec 64) #x0000000000000001)
(model-del k!0)
(model-add ARGNAME_filter_NAMEEND_DIM
           ()
           (_ BitVec 64)
           (ite k!0 #x0000000000000005 (bvnot #x0000000000000005)))


